(set-info :smt-lib-version 2.6)
(set-logic QF_LIA)
(set-info :source |
Older mathsat benchmarks.  Contact Mathsat group at http://mathsat.itc.it/ for
more information.

This benchmark was automatically translated into SMT-LIB format from
CVC format using CVC Lite
|)
(set-info :category "industrial")
(set-info :status unsat)
(declare-fun AT4_PROC1_X () Int)
(declare-fun AT5_PROC1_SW_C_B_TAU () Bool)
(declare-fun AT2_PROC1_X () Int)
(declare-fun AT6_PROC1_CS () Bool)
(declare-fun AT0_PROC1_X () Int)
(declare-fun AT3_PROC1_SW_A_B_TAU () Bool)
(declare-fun AT1_PROC1_SW_B_C_TAU () Bool)
(declare-fun AT0_ID0 () Bool)
(declare-fun AT0_ID1 () Bool)
(declare-fun AT5_Z () Int)
(declare-fun AT4_PROC1_CS () Bool)
(declare-fun AT4_ID0 () Bool)
(declare-fun AT3_DELTA () Bool)
(declare-fun AT4_ID1 () Bool)
(declare-fun AT4_PROC1_SW_A_B_TAU () Bool)
(declare-fun AT2_PROC1_SW_B_C_TAU () Bool)
(declare-fun AT1_PROC1_WAIT () Bool)
(declare-fun AT4_PROC1_SW_C_CS_TAU () Bool)
(declare-fun AT5_PROC1_SW_C_CS_TAU () Bool)
(declare-fun AT4_PROC1_C () Bool)
(declare-fun AT2_Z () Int)
(declare-fun AT4_PROC1_B () Bool)
(declare-fun AT3_PROC1_SW_B_C_TAU () Bool)
(declare-fun AT4_PROC1_A () Bool)
(declare-fun AT2_PROC1_C () Bool)
(declare-fun AT2_PROC1_B () Bool)
(declare-fun AT2_PROC1_A () Bool)
(declare-fun AT0_PROC1_C () Bool)
(declare-fun AT4_DELTA () Bool)
(declare-fun AT0_PROC1_B () Bool)
(declare-fun AT0_PROC1_A () Bool)
(declare-fun AT2_PROC1_CS () Bool)
(declare-fun AT3_PROC1_WAIT () Bool)
(declare-fun AT4_PROC1_SW_B_C_TAU () Bool)
(declare-fun AT1_ID0 () Bool)
(declare-fun AT1_ID1 () Bool)
(declare-fun AT5_DELTA () Bool)
(declare-fun AT5_PROC1_WAIT () Bool)
(declare-fun AT5_ID0 () Bool)
(declare-fun AT5_ID1 () Bool)
(declare-fun AT0_PROC1_SW_CS_A_TAU () Bool)
(declare-fun AT5_PROC1_SW_CS_A_TAU () Bool)
(declare-fun AT4_PROC1_WAIT () Bool)
(declare-fun AT3_PROC1_SW_C_CS_TAU () Bool)
(declare-fun AT4_Z () Int)
(declare-fun AT5_PROC1_X () Int)
(declare-fun AT3_PROC1_X () Int)
(declare-fun AT5_PROC1_CS () Bool)
(declare-fun AT1_PROC1_X () Int)
(declare-fun AT1_Z () Int)
(declare-fun AT2_ID0 () Bool)
(declare-fun AT2_ID1 () Bool)
(declare-fun AT0_PROC1_SW_C_B_TAU () Bool)
(declare-fun AT0_PROC1_CS () Bool)
(declare-fun AT6_ID0 () Bool)
(declare-fun AT6_ID1 () Bool)
(declare-fun AT0_PROC1_TAU () Bool)
(declare-fun AT2_PROC1_SW_CS_A_TAU () Bool)
(declare-fun AT0_PROC1_SW_C_CS_TAU () Bool)
(declare-fun AT5_PROC1_SW_B_C_TAU () Bool)
(declare-fun AT0_PROC1_WAIT () Bool)
(declare-fun AT3_PROC1_CS () Bool)
(declare-fun AT5_PROC1_C () Bool)
(declare-fun AT5_PROC1_TAU () Bool)
(declare-fun AT1_PROC1_SW_C_B_TAU () Bool)
(declare-fun AT5_PROC1_B () Bool)
(declare-fun AT5_PROC1_A () Bool)
(declare-fun AT3_PROC1_C () Bool)
(declare-fun AT3_PROC1_B () Bool)
(declare-fun AT3_PROC1_A () Bool)
(declare-fun AT1_PROC1_C () Bool)
(declare-fun AT3_PROC1_SW_CS_A_TAU () Bool)
(declare-fun AT1_PROC1_SW_C_CS_TAU () Bool)
(declare-fun AT1_PROC1_B () Bool)
(declare-fun AT6_Z () Int)
(declare-fun AT1_PROC1_A () Bool)
(declare-fun AT2_PROC1_SW_C_B_TAU () Bool)
(declare-fun AT0_DELTA () Bool)
(declare-fun AT1_PROC1_TAU () Bool)
(declare-fun AT5_PROC1_SW_A_B_TAU () Bool)
(declare-fun AT6_PROC1_A () Bool)
(declare-fun AT1_PROC1_CS () Bool)
(declare-fun AT4_PROC1_TAU () Bool)
(declare-fun AT6_PROC1_B () Bool)
(declare-fun AT3_PROC1_SW_C_B_TAU () Bool)
(declare-fun AT3_Z () Int)
(declare-fun AT6_PROC1_C () Bool)
(declare-fun AT3_ID0 () Bool)
(declare-fun AT0_PROC1_SW_A_B_TAU () Bool)
(declare-fun AT3_ID1 () Bool)
(declare-fun AT1_DELTA () Bool)
(declare-fun AT4_PROC1_SW_C_B_TAU () Bool)
(declare-fun AT2_PROC1_TAU () Bool)
(declare-fun AT4_PROC1_SW_CS_A_TAU () Bool)
(declare-fun AT2_PROC1_SW_C_CS_TAU () Bool)
(declare-fun AT1_PROC1_SW_A_B_TAU () Bool)
(declare-fun AT0_Z () Int)
(declare-fun AT2_PROC1_WAIT () Bool)
(declare-fun AT3_PROC1_TAU () Bool)
(declare-fun AT1_PROC1_SW_CS_A_TAU () Bool)
(declare-fun AT2_PROC1_SW_A_B_TAU () Bool)
(declare-fun AT2_DELTA () Bool)
(declare-fun AT0_PROC1_SW_B_C_TAU () Bool)
(declare-fun AT6_PROC1_X () Int)
(assert (let ((?v_0 (not AT0_PROC1_A)) (?v_1 (not AT0_PROC1_B)) (?v_2 (not AT0_PROC1_C)) (?v_3 (not AT0_PROC1_CS)) (?v_4 (not AT1_PROC1_A)) (?v_5 (not AT1_PROC1_B)) (?v_6 (not AT1_PROC1_C)) (?v_7 (not AT1_PROC1_CS)) (?v_8 (not AT2_PROC1_A)) (?v_9 (not AT2_PROC1_B)) (?v_10 (not AT2_PROC1_C)) (?v_11 (not AT2_PROC1_CS)) (?v_12 (not AT3_PROC1_A)) (?v_13 (not AT3_PROC1_B)) (?v_14 (not AT3_PROC1_C)) (?v_15 (not AT3_PROC1_CS)) (?v_16 (not AT4_PROC1_A)) (?v_17 (not AT4_PROC1_B)) (?v_18 (not AT4_PROC1_C)) (?v_19 (not AT4_PROC1_CS)) (?v_20 (not AT5_PROC1_A)) (?v_21 (not AT5_PROC1_B)) (?v_22 (not AT5_PROC1_C)) (?v_23 (not AT5_PROC1_CS)) (?v_24 (not AT6_PROC1_A)) (?v_25 (not AT6_PROC1_B)) (?v_26 (not AT6_PROC1_C)) (?v_27 (not AT6_PROC1_CS)) (?v_28 (= AT0_PROC1_X AT0_Z)) (?v_29 (> AT0_PROC1_X AT0_Z))) (let ((?v_129 (not ?v_28)) (?v_30 (= AT1_PROC1_X AT1_Z)) (?v_31 (> AT1_PROC1_X AT1_Z))) (let ((?v_128 (not ?v_30)) (?v_32 (= AT2_PROC1_X AT2_Z)) (?v_33 (> AT2_PROC1_X AT2_Z))) (let ((?v_134 (not ?v_32)) (?v_34 (= AT3_PROC1_X AT3_Z)) (?v_35 (> AT3_PROC1_X AT3_Z))) (let ((?v_140 (not ?v_34)) (?v_36 (= AT4_PROC1_X AT4_Z)) (?v_37 (> AT4_PROC1_X AT4_Z))) (let ((?v_146 (not ?v_36)) (?v_38 (= AT5_PROC1_X AT5_Z)) (?v_39 (> AT5_PROC1_X AT5_Z))) (let ((?v_152 (not ?v_38)) (?v_40 (= AT6_PROC1_X AT6_Z)) (?v_41 (> AT6_PROC1_X AT6_Z))) (let ((?v_158 (not ?v_40)) (?v_47 (- AT0_PROC1_X AT0_Z))) (let ((?v_44 (<= ?v_47 10)) (?v_54 (- AT1_PROC1_X AT1_Z))) (let ((?v_51 (<= ?v_54 10)) (?v_61 (- AT2_PROC1_X AT2_Z))) (let ((?v_58 (<= ?v_61 10)) (?v_68 (- AT3_PROC1_X AT3_Z))) (let ((?v_65 (<= ?v_68 10)) (?v_75 (- AT4_PROC1_X AT4_Z))) (let ((?v_72 (<= ?v_75 10)) (?v_82 (- AT5_PROC1_X AT5_Z))) (let ((?v_79 (<= ?v_82 10)) (?v_42 (not AT0_PROC1_SW_A_B_TAU)) (?v_43 (not AT0_PROC1_SW_B_C_TAU)) (?v_45 (not AT0_PROC1_SW_C_B_TAU)) (?v_46 (not AT0_PROC1_SW_C_CS_TAU)) (?v_91 (= AT1_PROC1_X AT0_PROC1_X)) (?v_48 (not AT0_PROC1_SW_CS_A_TAU)) (?v_49 (not AT1_PROC1_SW_A_B_TAU)) (?v_50 (not AT1_PROC1_SW_B_C_TAU)) (?v_52 (not AT1_PROC1_SW_C_B_TAU)) (?v_53 (not AT1_PROC1_SW_C_CS_TAU)) (?v_93 (= AT2_PROC1_X AT1_PROC1_X)) (?v_55 (not AT1_PROC1_SW_CS_A_TAU)) (?v_56 (not AT2_PROC1_SW_A_B_TAU)) (?v_57 (not AT2_PROC1_SW_B_C_TAU)) (?v_59 (not AT2_PROC1_SW_C_B_TAU)) (?v_60 (not AT2_PROC1_SW_C_CS_TAU)) (?v_95 (= AT3_PROC1_X AT2_PROC1_X)) (?v_62 (not AT2_PROC1_SW_CS_A_TAU)) (?v_63 (not AT3_PROC1_SW_A_B_TAU)) (?v_64 (not AT3_PROC1_SW_B_C_TAU)) (?v_66 (not AT3_PROC1_SW_C_B_TAU)) (?v_67 (not AT3_PROC1_SW_C_CS_TAU)) (?v_97 (= AT4_PROC1_X AT3_PROC1_X)) (?v_69 (not AT3_PROC1_SW_CS_A_TAU)) (?v_70 (not AT4_PROC1_SW_A_B_TAU)) (?v_71 (not AT4_PROC1_SW_B_C_TAU)) (?v_73 (not AT4_PROC1_SW_C_B_TAU)) (?v_74 (not AT4_PROC1_SW_C_CS_TAU)) (?v_99 (= AT5_PROC1_X AT4_PROC1_X)) (?v_76 (not AT4_PROC1_SW_CS_A_TAU)) (?v_77 (not AT5_PROC1_SW_A_B_TAU)) (?v_78 (not AT5_PROC1_SW_B_C_TAU)) (?v_80 (not AT5_PROC1_SW_C_B_TAU)) (?v_81 (not AT5_PROC1_SW_C_CS_TAU)) (?v_101 (= AT6_PROC1_X AT5_PROC1_X)) (?v_83 (not AT5_PROC1_SW_CS_A_TAU)) (?v_84 (= AT1_Z AT0_Z)) (?v_85 (= AT2_Z AT1_Z)) (?v_86 (= AT3_Z AT2_Z)) (?v_87 (= AT4_Z AT3_Z)) (?v_88 (= AT5_Z AT4_Z)) (?v_89 (= AT6_Z AT5_Z)) (?v_90 (not AT0_PROC1_WAIT)) (?v_103 (not AT0_PROC1_TAU)) (?v_92 (not AT1_PROC1_WAIT)) (?v_105 (not AT1_PROC1_TAU)) (?v_94 (not AT2_PROC1_WAIT)) (?v_107 (not AT2_PROC1_TAU)) (?v_96 (not AT3_PROC1_WAIT)) (?v_109 (not AT3_PROC1_TAU)) (?v_98 (not AT4_PROC1_WAIT)) (?v_111 (not AT4_PROC1_TAU)) (?v_100 (not AT5_PROC1_WAIT)) (?v_113 (not AT5_PROC1_TAU)) (?v_102 (not AT0_DELTA)) (?v_120 (< AT1_Z AT0_Z)) (?v_104 (not AT1_DELTA)) (?v_121 (< AT2_Z AT1_Z)) (?v_106 (not AT2_DELTA)) (?v_122 (< AT3_Z AT2_Z)) (?v_108 (not AT3_DELTA)) (?v_123 (< AT4_Z AT3_Z)) (?v_110 (not AT4_DELTA)) (?v_124 (< AT5_Z AT4_Z)) (?v_112 (not AT5_DELTA)) (?v_125 (< AT6_Z AT5_Z)) (?v_114 (< AT1_PROC1_X AT0_PROC1_X))) (let ((?v_126 (not ?v_91)) (?v_115 (< AT2_PROC1_X AT1_PROC1_X)) (?v_132 (not ?v_93)) (?v_116 (< AT3_PROC1_X AT2_PROC1_X)) (?v_138 (not ?v_95)) (?v_117 (< AT4_PROC1_X AT3_PROC1_X)) (?v_144 (not ?v_97)) (?v_118 (< AT5_PROC1_X AT4_PROC1_X)) (?v_150 (not ?v_99)) (?v_119 (< AT6_PROC1_X AT5_PROC1_X)) (?v_156 (not ?v_101)) (?v_127 (not ?v_84)) (?v_131 (not ?v_120)) (?v_133 (not ?v_85)) (?v_137 (not ?v_121)) (?v_139 (not ?v_86)) (?v_143 (not ?v_122)) (?v_145 (not ?v_87)) (?v_149 (not ?v_123)) (?v_151 (not ?v_88)) (?v_155 (not ?v_124)) (?v_157 (not ?v_89)) (?v_161 (not ?v_125))) (let ((?v_130 (or ?v_129 ?v_126)) (?v_136 (< AT1_Z AT1_PROC1_X)) (?v_135 (or ?v_128 ?v_132)) (?v_142 (< AT2_Z AT2_PROC1_X)) (?v_141 (or ?v_134 ?v_138)) (?v_148 (< AT3_Z AT3_PROC1_X)) (?v_147 (or ?v_140 ?v_144)) (?v_154 (< AT4_Z AT4_PROC1_X)) (?v_153 (or ?v_146 ?v_150)) (?v_160 (< AT5_Z AT5_PROC1_X)) (?v_159 (or ?v_152 ?v_156)) (?v_163 (not AT0_ID0)) (?v_162 (not AT0_ID1)) (?v_165 (not AT1_ID0)) (?v_164 (not AT1_ID1)) (?v_167 (not AT2_ID0)) (?v_166 (not AT2_ID1)) (?v_169 (not AT3_ID0)) (?v_168 (not AT3_ID1)) (?v_171 (not AT4_ID0)) (?v_170 (not AT4_ID1)) (?v_173 (not AT5_ID0)) (?v_172 (not AT5_ID1)) (?v_174 (not AT6_ID1)) (?v_175 (- AT6_PROC1_X AT6_Z))) (and (and (and (and (and (and (and (and (and (and (and (and (and (and (and (and (and (and (and (and (and (and (and (and (and (and (and (and (and (and (and (and (and (and (and (and (and (and (and (and (and (and (and (and (and (and (and (and (and (and (and (and (and (and (and (and (and (and (and (and (and (and (and (and (and (and (and (and (and (and (and (and (and (and (and (and (and (and (and (and (and (and (and (and (and (and (and (and (and (and (and (and (and (and (and (and (and (and (and (and (and (and (and (and (and (and (and (and (and (and (and (and (and (and (and (and (and (and (and (and (and (and (and (and (and (and (and (and (and (and (and (and (and (and (and (and (and (and (and (and (and (and (and (and (and (and (and (and (and (and (and (and (and (and (and (and (and (and (and (and (and (and (and (and (and (and (and (and (and (and (and (and (and (and (and (and (and (and (and (and (and (and (and (and (and (and (and (and (and (and (and (and (and (and (and (and (and (and (and (and (and (and (and (and (and (and (and (and (and (and (and (and (and (and (and (and (and (and (and (and (and (and (and (and (and (and (and (and (and (and (and (and (and (and (and (and (and (and (and (and (and (and (and (and (and (and (and (and (and (and (and (and (and (and (and (and (and (and (and (and (and (and (and (and (and (and (and (and (and (and (and (and (and (and (and (and (and (and (and (and (and (and (and (and (and (and (and (and (and (and (and (and (and (and (and (and (and (and (and (and (and (and (and (and (and (and (and (and (and (and (and (and (and (and (and (and (and (and (and (and (and (and (and (and (and (and (and (and (and (and (and (and (and (and (and (and (and (and (and (and (and (and (and (and (and (and (and (and (and (and (and (and (and (and (and (and (and (and (and (and (and (and (and (and (and (and (and (and (and (and (and (and (and (and (and (and (and (and (and (and (and (and (and (and (and (and (and (and (and (and (and (and (and (and (and (and (and (and (and (and (and (and (and (and (and (and (and (and (and (and (and (and (and (and (and (and (and (and (and (and (and (and (and (and (and (and (and (and (and (and (and (and (and (and (and (and (and (and (and (and (and (and (and (and (and (and (and (and (and (and (and (and (and (and (and (and (and (and (and (and (and (and (and (and (and (and (and (and (and (and (and (and (and (and (and (and (and (and (and (and (and (and (and (and (and (and (and (and (and (and (and (and (and (and (and (and (and (and (and (and (and (and (and (and (and (and (and (and (and (and (and (and (and (and (and (or ?v_0 ?v_1) (or ?v_0 ?v_2)) (or ?v_0 ?v_3)) (or ?v_1 ?v_2)) (or ?v_1 ?v_3)) (or ?v_2 ?v_3)) (or ?v_4 ?v_5)) (or ?v_4 ?v_6)) (or ?v_4 ?v_7)) (or ?v_5 ?v_6)) (or ?v_5 ?v_7)) (or ?v_6 ?v_7)) (or ?v_8 ?v_9)) (or ?v_8 ?v_10)) (or ?v_8 ?v_11)) (or ?v_9 ?v_10)) (or ?v_9 ?v_11)) (or ?v_10 ?v_11)) (or ?v_12 ?v_13)) (or ?v_12 ?v_14)) (or ?v_12 ?v_15)) (or ?v_13 ?v_14)) (or ?v_13 ?v_15)) (or ?v_14 ?v_15)) (or ?v_16 ?v_17)) (or ?v_16 ?v_18)) (or ?v_16 ?v_19)) (or ?v_17 ?v_18)) (or ?v_17 ?v_19)) (or ?v_18 ?v_19)) (or ?v_20 ?v_21)) (or ?v_20 ?v_22)) (or ?v_20 ?v_23)) (or ?v_21 ?v_22)) (or ?v_21 ?v_23)) (or ?v_22 ?v_23)) (or ?v_24 ?v_25)) (or ?v_24 ?v_26)) (or ?v_24 ?v_27)) (or ?v_25 ?v_26)) (or ?v_25 ?v_27)) (or ?v_26 ?v_27)) (or ?v_28 ?v_29)) (or ?v_129 (not ?v_29))) (or ?v_30 ?v_31)) (or ?v_128 (not ?v_31))) (or ?v_32 ?v_33)) (or ?v_134 (not ?v_33))) (or ?v_34 ?v_35)) (or ?v_140 (not ?v_35))) (or ?v_36 ?v_37)) (or ?v_146 (not ?v_37))) (or ?v_38 ?v_39)) (or ?v_152 (not ?v_39))) (or ?v_40 ?v_41)) (or ?v_158 (not ?v_41))) (or ?v_1 ?v_44)) (or ?v_5 ?v_51)) (or ?v_9 ?v_58)) (or ?v_13 ?v_65)) (or ?v_17 ?v_72)) (or ?v_21 ?v_79)) (or ?v_25 (<= ?v_175 10))) (or (or (or (or (or (or AT0_PROC1_WAIT AT0_DELTA) AT0_PROC1_SW_A_B_TAU) AT0_PROC1_SW_B_C_TAU) AT0_PROC1_SW_C_B_TAU) AT0_PROC1_SW_C_CS_TAU) AT0_PROC1_SW_CS_A_TAU)) (or (or (or (or (or (or AT1_PROC1_WAIT AT1_DELTA) AT1_PROC1_SW_A_B_TAU) AT1_PROC1_SW_B_C_TAU) AT1_PROC1_SW_C_B_TAU) AT1_PROC1_SW_C_CS_TAU) AT1_PROC1_SW_CS_A_TAU)) (or (or (or (or (or (or AT2_PROC1_WAIT AT2_DELTA) AT2_PROC1_SW_A_B_TAU) AT2_PROC1_SW_B_C_TAU) AT2_PROC1_SW_C_B_TAU) AT2_PROC1_SW_C_CS_TAU) AT2_PROC1_SW_CS_A_TAU)) (or (or (or (or (or (or AT3_PROC1_WAIT AT3_DELTA) AT3_PROC1_SW_A_B_TAU) AT3_PROC1_SW_B_C_TAU) AT3_PROC1_SW_C_B_TAU) AT3_PROC1_SW_C_CS_TAU) AT3_PROC1_SW_CS_A_TAU)) (or (or (or (or (or (or AT4_PROC1_WAIT AT4_DELTA) AT4_PROC1_SW_A_B_TAU) AT4_PROC1_SW_B_C_TAU) AT4_PROC1_SW_C_B_TAU) AT4_PROC1_SW_C_CS_TAU) AT4_PROC1_SW_CS_A_TAU)) (or (or (or (or (or (or AT5_PROC1_WAIT AT5_DELTA) AT5_PROC1_SW_A_B_TAU) AT5_PROC1_SW_B_C_TAU) AT5_PROC1_SW_C_B_TAU) AT5_PROC1_SW_C_CS_TAU) AT5_PROC1_SW_CS_A_TAU)) (or ?v_42 AT0_PROC1_A)) (or ?v_42 AT0_PROC1_TAU)) (or ?v_42 AT1_PROC1_B)) (or ?v_42 ?v_30)) (or ?v_43 AT0_PROC1_B)) (or ?v_43 AT0_PROC1_TAU)) (or ?v_43 AT1_PROC1_C)) (or ?v_43 ?v_44)) (or ?v_43 ?v_30)) (or ?v_45 AT0_PROC1_C)) (or ?v_45 AT0_PROC1_TAU)) (or ?v_45 AT1_PROC1_B)) (or ?v_45 ?v_30)) (or ?v_46 AT0_PROC1_C)) (or ?v_46 AT0_PROC1_TAU)) (or ?v_46 AT1_PROC1_CS)) (or ?v_46 (> ?v_47 10))) (or ?v_46 ?v_91)) (or ?v_48 AT0_PROC1_CS)) (or ?v_48 AT0_PROC1_TAU)) (or ?v_48 AT1_PROC1_A)) (or ?v_48 ?v_30)) (or ?v_49 AT1_PROC1_A)) (or ?v_49 AT1_PROC1_TAU)) (or ?v_49 AT2_PROC1_B)) (or ?v_49 ?v_32)) (or ?v_50 AT1_PROC1_B)) (or ?v_50 AT1_PROC1_TAU)) (or ?v_50 AT2_PROC1_C)) (or ?v_50 ?v_51)) (or ?v_50 ?v_32)) (or ?v_52 AT1_PROC1_C)) (or ?v_52 AT1_PROC1_TAU)) (or ?v_52 AT2_PROC1_B)) (or ?v_52 ?v_32)) (or ?v_53 AT1_PROC1_C)) (or ?v_53 AT1_PROC1_TAU)) (or ?v_53 AT2_PROC1_CS)) (or ?v_53 (> ?v_54 10))) (or ?v_53 ?v_93)) (or ?v_55 AT1_PROC1_CS)) (or ?v_55 AT1_PROC1_TAU)) (or ?v_55 AT2_PROC1_A)) (or ?v_55 ?v_32)) (or ?v_56 AT2_PROC1_A)) (or ?v_56 AT2_PROC1_TAU)) (or ?v_56 AT3_PROC1_B)) (or ?v_56 ?v_34)) (or ?v_57 AT2_PROC1_B)) (or ?v_57 AT2_PROC1_TAU)) (or ?v_57 AT3_PROC1_C)) (or ?v_57 ?v_58)) (or ?v_57 ?v_34)) (or ?v_59 AT2_PROC1_C)) (or ?v_59 AT2_PROC1_TAU)) (or ?v_59 AT3_PROC1_B)) (or ?v_59 ?v_34)) (or ?v_60 AT2_PROC1_C)) (or ?v_60 AT2_PROC1_TAU)) (or ?v_60 AT3_PROC1_CS)) (or ?v_60 (> ?v_61 10))) (or ?v_60 ?v_95)) (or ?v_62 AT2_PROC1_CS)) (or ?v_62 AT2_PROC1_TAU)) (or ?v_62 AT3_PROC1_A)) (or ?v_62 ?v_34)) (or ?v_63 AT3_PROC1_A)) (or ?v_63 AT3_PROC1_TAU)) (or ?v_63 AT4_PROC1_B)) (or ?v_63 ?v_36)) (or ?v_64 AT3_PROC1_B)) (or ?v_64 AT3_PROC1_TAU)) (or ?v_64 AT4_PROC1_C)) (or ?v_64 ?v_65)) (or ?v_64 ?v_36)) (or ?v_66 AT3_PROC1_C)) (or ?v_66 AT3_PROC1_TAU)) (or ?v_66 AT4_PROC1_B)) (or ?v_66 ?v_36)) (or ?v_67 AT3_PROC1_C)) (or ?v_67 AT3_PROC1_TAU)) (or ?v_67 AT4_PROC1_CS)) (or ?v_67 (> ?v_68 10))) (or ?v_67 ?v_97)) (or ?v_69 AT3_PROC1_CS)) (or ?v_69 AT3_PROC1_TAU)) (or ?v_69 AT4_PROC1_A)) (or ?v_69 ?v_36)) (or ?v_70 AT4_PROC1_A)) (or ?v_70 AT4_PROC1_TAU)) (or ?v_70 AT5_PROC1_B)) (or ?v_70 ?v_38)) (or ?v_71 AT4_PROC1_B)) (or ?v_71 AT4_PROC1_TAU)) (or ?v_71 AT5_PROC1_C)) (or ?v_71 ?v_72)) (or ?v_71 ?v_38)) (or ?v_73 AT4_PROC1_C)) (or ?v_73 AT4_PROC1_TAU)) (or ?v_73 AT5_PROC1_B)) (or ?v_73 ?v_38)) (or ?v_74 AT4_PROC1_C)) (or ?v_74 AT4_PROC1_TAU)) (or ?v_74 AT5_PROC1_CS)) (or ?v_74 (> ?v_75 10))) (or ?v_74 ?v_99)) (or ?v_76 AT4_PROC1_CS)) (or ?v_76 AT4_PROC1_TAU)) (or ?v_76 AT5_PROC1_A)) (or ?v_76 ?v_38)) (or ?v_77 AT5_PROC1_A)) (or ?v_77 AT5_PROC1_TAU)) (or ?v_77 AT6_PROC1_B)) (or ?v_77 ?v_40)) (or ?v_78 AT5_PROC1_B)) (or ?v_78 AT5_PROC1_TAU)) (or ?v_78 AT6_PROC1_C)) (or ?v_78 ?v_79)) (or ?v_78 ?v_40)) (or ?v_80 AT5_PROC1_C)) (or ?v_80 AT5_PROC1_TAU)) (or ?v_80 AT6_PROC1_B)) (or ?v_80 ?v_40)) (or ?v_81 AT5_PROC1_C)) (or ?v_81 AT5_PROC1_TAU)) (or ?v_81 AT6_PROC1_CS)) (or ?v_81 (> ?v_82 10))) (or ?v_81 ?v_101)) (or ?v_83 AT5_PROC1_CS)) (or ?v_83 AT5_PROC1_TAU)) (or ?v_83 AT6_PROC1_A)) (or ?v_83 ?v_40)) (or ?v_42 ?v_84)) (or ?v_43 ?v_84)) (or ?v_45 ?v_84)) (or ?v_46 ?v_84)) (or ?v_48 ?v_84)) (or ?v_49 ?v_85)) (or ?v_50 ?v_85)) (or ?v_52 ?v_85)) (or ?v_53 ?v_85)) (or ?v_55 ?v_85)) (or ?v_56 ?v_86)) (or ?v_57 ?v_86)) (or ?v_59 ?v_86)) (or ?v_60 ?v_86)) (or ?v_62 ?v_86)) (or ?v_63 ?v_87)) (or ?v_64 ?v_87)) (or ?v_66 ?v_87)) (or ?v_67 ?v_87)) (or ?v_69 ?v_87)) (or ?v_70 ?v_88)) (or ?v_71 ?v_88)) (or ?v_73 ?v_88)) (or ?v_74 ?v_88)) (or ?v_76 ?v_88)) (or ?v_77 ?v_89)) (or ?v_78 ?v_89)) (or ?v_80 ?v_89)) (or ?v_81 ?v_89)) (or ?v_83 ?v_89)) (or (or ?v_90 ?v_0) AT1_PROC1_A)) (or (or ?v_90 AT0_PROC1_A) ?v_4)) (or (or ?v_90 ?v_1) AT1_PROC1_B)) (or (or ?v_90 AT0_PROC1_B) ?v_5)) (or (or ?v_90 ?v_2) AT1_PROC1_C)) (or (or ?v_90 AT0_PROC1_C) ?v_6)) (or (or ?v_90 ?v_3) AT1_PROC1_CS)) (or (or ?v_90 AT0_PROC1_CS) ?v_7)) (or ?v_90 ?v_103)) (or ?v_90 ?v_91)) (or ?v_90 ?v_84)) (or (or ?v_92 ?v_4) AT2_PROC1_A)) (or (or ?v_92 AT1_PROC1_A) ?v_8)) (or (or ?v_92 ?v_5) AT2_PROC1_B)) (or (or ?v_92 AT1_PROC1_B) ?v_9)) (or (or ?v_92 ?v_6) AT2_PROC1_C)) (or (or ?v_92 AT1_PROC1_C) ?v_10)) (or (or ?v_92 ?v_7) AT2_PROC1_CS)) (or (or ?v_92 AT1_PROC1_CS) ?v_11)) (or ?v_92 ?v_105)) (or ?v_92 ?v_93)) (or ?v_92 ?v_85)) (or (or ?v_94 ?v_8) AT3_PROC1_A)) (or (or ?v_94 AT2_PROC1_A) ?v_12)) (or (or ?v_94 ?v_9) AT3_PROC1_B)) (or (or ?v_94 AT2_PROC1_B) ?v_13)) (or (or ?v_94 ?v_10) AT3_PROC1_C)) (or (or ?v_94 AT2_PROC1_C) ?v_14)) (or (or ?v_94 ?v_11) AT3_PROC1_CS)) (or (or ?v_94 AT2_PROC1_CS) ?v_15)) (or ?v_94 ?v_107)) (or ?v_94 ?v_95)) (or ?v_94 ?v_86)) (or (or ?v_96 ?v_12) AT4_PROC1_A)) (or (or ?v_96 AT3_PROC1_A) ?v_16)) (or (or ?v_96 ?v_13) AT4_PROC1_B)) (or (or ?v_96 AT3_PROC1_B) ?v_17)) (or (or ?v_96 ?v_14) AT4_PROC1_C)) (or (or ?v_96 AT3_PROC1_C) ?v_18)) (or (or ?v_96 ?v_15) AT4_PROC1_CS)) (or (or ?v_96 AT3_PROC1_CS) ?v_19)) (or ?v_96 ?v_109)) (or ?v_96 ?v_97)) (or ?v_96 ?v_87)) (or (or ?v_98 ?v_16) AT5_PROC1_A)) (or (or ?v_98 AT4_PROC1_A) ?v_20)) (or (or ?v_98 ?v_17) AT5_PROC1_B)) (or (or ?v_98 AT4_PROC1_B) ?v_21)) (or (or ?v_98 ?v_18) AT5_PROC1_C)) (or (or ?v_98 AT4_PROC1_C) ?v_22)) (or (or ?v_98 ?v_19) AT5_PROC1_CS)) (or (or ?v_98 AT4_PROC1_CS) ?v_23)) (or ?v_98 ?v_111)) (or ?v_98 ?v_99)) (or ?v_98 ?v_88)) (or (or ?v_100 ?v_20) AT6_PROC1_A)) (or (or ?v_100 AT5_PROC1_A) ?v_24)) (or (or ?v_100 ?v_21) AT6_PROC1_B)) (or (or ?v_100 AT5_PROC1_B) ?v_25)) (or (or ?v_100 ?v_22) AT6_PROC1_C)) (or (or ?v_100 AT5_PROC1_C) ?v_26)) (or (or ?v_100 ?v_23) AT6_PROC1_CS)) (or (or ?v_100 AT5_PROC1_CS) ?v_27)) (or ?v_100 ?v_113)) (or ?v_100 ?v_101)) (or ?v_100 ?v_89)) (or (or ?v_102 ?v_0) AT1_PROC1_A)) (or (or ?v_102 AT0_PROC1_A) ?v_4)) (or (or ?v_102 ?v_1) AT1_PROC1_B)) (or (or ?v_102 AT0_PROC1_B) ?v_5)) (or (or ?v_102 ?v_2) AT1_PROC1_C)) (or (or ?v_102 AT0_PROC1_C) ?v_6)) (or (or ?v_102 ?v_3) AT1_PROC1_CS)) (or (or ?v_102 AT0_PROC1_CS) ?v_7)) (or ?v_102 ?v_91)) (or ?v_102 ?v_103)) (or ?v_102 ?v_120)) (or (or ?v_104 ?v_4) AT2_PROC1_A)) (or (or ?v_104 AT1_PROC1_A) ?v_8)) (or (or ?v_104 ?v_5) AT2_PROC1_B)) (or (or ?v_104 AT1_PROC1_B) ?v_9)) (or (or ?v_104 ?v_6) AT2_PROC1_C)) (or (or ?v_104 AT1_PROC1_C) ?v_10)) (or (or ?v_104 ?v_7) AT2_PROC1_CS)) (or (or ?v_104 AT1_PROC1_CS) ?v_11)) (or ?v_104 ?v_93)) (or ?v_104 ?v_105)) (or ?v_104 ?v_121)) (or (or ?v_106 ?v_8) AT3_PROC1_A)) (or (or ?v_106 AT2_PROC1_A) ?v_12)) (or (or ?v_106 ?v_9) AT3_PROC1_B)) (or (or ?v_106 AT2_PROC1_B) ?v_13)) (or (or ?v_106 ?v_10) AT3_PROC1_C)) (or (or ?v_106 AT2_PROC1_C) ?v_14)) (or (or ?v_106 ?v_11) AT3_PROC1_CS)) (or (or ?v_106 AT2_PROC1_CS) ?v_15)) (or ?v_106 ?v_95)) (or ?v_106 ?v_107)) (or ?v_106 ?v_122)) (or (or ?v_108 ?v_12) AT4_PROC1_A)) (or (or ?v_108 AT3_PROC1_A) ?v_16)) (or (or ?v_108 ?v_13) AT4_PROC1_B)) (or (or ?v_108 AT3_PROC1_B) ?v_17)) (or (or ?v_108 ?v_14) AT4_PROC1_C)) (or (or ?v_108 AT3_PROC1_C) ?v_18)) (or (or ?v_108 ?v_15) AT4_PROC1_CS)) (or (or ?v_108 AT3_PROC1_CS) ?v_19)) (or ?v_108 ?v_97)) (or ?v_108 ?v_109)) (or ?v_108 ?v_123)) (or (or ?v_110 ?v_16) AT5_PROC1_A)) (or (or ?v_110 AT4_PROC1_A) ?v_20)) (or (or ?v_110 ?v_17) AT5_PROC1_B)) (or (or ?v_110 AT4_PROC1_B) ?v_21)) (or (or ?v_110 ?v_18) AT5_PROC1_C)) (or (or ?v_110 AT4_PROC1_C) ?v_22)) (or (or ?v_110 ?v_19) AT5_PROC1_CS)) (or (or ?v_110 AT4_PROC1_CS) ?v_23)) (or ?v_110 ?v_99)) (or ?v_110 ?v_111)) (or ?v_110 ?v_124)) (or (or ?v_112 ?v_20) AT6_PROC1_A)) (or (or ?v_112 AT5_PROC1_A) ?v_24)) (or (or ?v_112 ?v_21) AT6_PROC1_B)) (or (or ?v_112 AT5_PROC1_B) ?v_25)) (or (or ?v_112 ?v_22) AT6_PROC1_C)) (or (or ?v_112 AT5_PROC1_C) ?v_26)) (or (or ?v_112 ?v_23) AT6_PROC1_CS)) (or (or ?v_112 AT5_PROC1_CS) ?v_27)) (or ?v_112 ?v_101)) (or ?v_112 ?v_113)) (or ?v_112 ?v_125)) (or ?v_91 ?v_114)) (or ?v_126 (not ?v_114))) (or ?v_93 ?v_115)) (or ?v_132 (not ?v_115))) (or ?v_95 ?v_116)) (or ?v_138 (not ?v_116))) (or ?v_97 ?v_117)) (or ?v_144 (not ?v_117))) (or ?v_99 ?v_118)) (or ?v_150 (not ?v_118))) (or ?v_101 ?v_119)) (or ?v_156 (not ?v_119))) (or ?v_102 ?v_104)) (or ?v_104 ?v_106)) (or ?v_106 ?v_108)) (or ?v_108 ?v_110)) (or ?v_110 ?v_112)) (or ?v_84 ?v_120)) (or ?v_127 ?v_131)) (or ?v_85 ?v_121)) (or ?v_133 ?v_137)) (or ?v_86 ?v_122)) (or ?v_139 ?v_143)) (or ?v_87 ?v_123)) (or ?v_145 ?v_149)) (or ?v_88 ?v_124)) (or ?v_151 ?v_155)) (or ?v_89 ?v_125)) (or ?v_157 ?v_161)) (or (or (or ?v_28 ?v_126) ?v_127) ?v_128)) (or (or (or ?v_129 ?v_91) ?v_127) ?v_128)) (or (or ?v_130 ?v_84) ?v_128)) (or (or ?v_130 ?v_127) ?v_30)) (or (or (or (not (< AT0_Z AT0_PROC1_X)) ?v_126) ?v_131) ?v_136)) (or (or (or ?v_30 ?v_132) ?v_133) ?v_134)) (or (or (or ?v_128 ?v_93) ?v_133) ?v_134)) (or (or ?v_135 ?v_85) ?v_134)) (or (or ?v_135 ?v_133) ?v_32)) (or (or (or (not ?v_136) ?v_132) ?v_137) ?v_142)) (or (or (or ?v_32 ?v_138) ?v_139) ?v_140)) (or (or (or ?v_134 ?v_95) ?v_139) ?v_140)) (or (or ?v_141 ?v_86) ?v_140)) (or (or ?v_141 ?v_139) ?v_34)) (or (or (or (not ?v_142) ?v_138) ?v_143) ?v_148)) (or (or (or ?v_34 ?v_144) ?v_145) ?v_146)) (or (or (or ?v_140 ?v_97) ?v_145) ?v_146)) (or (or ?v_147 ?v_87) ?v_146)) (or (or ?v_147 ?v_145) ?v_36)) (or (or (or (not ?v_148) ?v_144) ?v_149) ?v_154)) (or (or (or ?v_36 ?v_150) ?v_151) ?v_152)) (or (or (or ?v_146 ?v_99) ?v_151) ?v_152)) (or (or ?v_153 ?v_88) ?v_152)) (or (or ?v_153 ?v_151) ?v_38)) (or (or (or (not ?v_154) ?v_150) ?v_155) ?v_160)) (or (or (or ?v_38 ?v_156) ?v_157) ?v_158)) (or (or (or ?v_152 ?v_101) ?v_157) ?v_158)) (or (or ?v_159 ?v_89) ?v_158)) (or (or ?v_159 ?v_157) ?v_40)) (or (or (or (not ?v_160) ?v_156) ?v_161) (< AT6_Z AT6_PROC1_X))) AT0_PROC1_A) ?v_28) AT0_ID0) ?v_90) ?v_92) ?v_94) ?v_96) ?v_98) ?v_100) (or ?v_163 ?v_162)) (or ?v_165 ?v_164)) (or ?v_167 ?v_166)) (or ?v_169 ?v_168)) (or ?v_171 ?v_170)) (or ?v_173 ?v_172)) (or (not AT6_ID0) ?v_174)) (or ?v_42 AT0_ID0)) (or ?v_42 AT1_ID0)) (or ?v_43 AT1_ID1)) (or ?v_45 AT0_ID0)) (or ?v_45 AT1_ID0)) (or ?v_46 AT0_ID1)) (or ?v_46 AT1_ID1)) (or ?v_48 AT1_ID0)) (or (or ?v_102 ?v_162) AT1_ID1)) (or (or ?v_102 ?v_163) AT1_ID0)) (or ?v_49 AT1_ID0)) (or ?v_49 AT2_ID0)) (or ?v_50 AT2_ID1)) (or ?v_52 AT1_ID0)) (or ?v_52 AT2_ID0)) (or ?v_53 AT1_ID1)) (or ?v_53 AT2_ID1)) (or ?v_55 AT2_ID0)) (or (or ?v_104 ?v_164) AT2_ID1)) (or (or ?v_104 ?v_165) AT2_ID0)) (or ?v_56 AT2_ID0)) (or ?v_56 AT3_ID0)) (or ?v_57 AT3_ID1)) (or ?v_59 AT2_ID0)) (or ?v_59 AT3_ID0)) (or ?v_60 AT2_ID1)) (or ?v_60 AT3_ID1)) (or ?v_62 AT3_ID0)) (or (or ?v_106 ?v_166) AT3_ID1)) (or (or ?v_106 ?v_167) AT3_ID0)) (or ?v_63 AT3_ID0)) (or ?v_63 AT4_ID0)) (or ?v_64 AT4_ID1)) (or ?v_66 AT3_ID0)) (or ?v_66 AT4_ID0)) (or ?v_67 AT3_ID1)) (or ?v_67 AT4_ID1)) (or ?v_69 AT4_ID0)) (or (or ?v_108 ?v_168) AT4_ID1)) (or (or ?v_108 ?v_169) AT4_ID0)) (or ?v_70 AT4_ID0)) (or ?v_70 AT5_ID0)) (or ?v_71 AT5_ID1)) (or ?v_73 AT4_ID0)) (or ?v_73 AT5_ID0)) (or ?v_74 AT4_ID1)) (or ?v_74 AT5_ID1)) (or ?v_76 AT5_ID0)) (or (or ?v_110 ?v_170) AT5_ID1)) (or (or ?v_110 ?v_171) AT5_ID0)) (or ?v_77 AT5_ID0)) (or ?v_77 AT6_ID0)) (or ?v_78 AT6_ID1)) (or ?v_80 AT5_ID0)) (or ?v_80 AT6_ID0)) (or ?v_81 AT5_ID1)) (or ?v_81 AT6_ID1)) (or ?v_83 AT6_ID0)) (or (or ?v_112 ?v_172) AT6_ID1)) (or (or ?v_112 ?v_173) AT6_ID0)) (or ?v_4 AT6_PROC1_A)) (or AT1_PROC1_A ?v_24)) (or ?v_5 AT6_PROC1_B)) (or AT1_PROC1_B ?v_25)) (or ?v_6 AT6_PROC1_C)) (or AT1_PROC1_C ?v_26)) (or ?v_7 AT6_PROC1_CS)) (or AT1_PROC1_CS ?v_27)) (or ?v_164 AT6_ID1)) (or AT1_ID1 ?v_174)) (= ?v_54 ?v_175)) (or (or (or (or (or AT1_PROC1_B AT2_PROC1_B) AT3_PROC1_B) AT4_PROC1_B) AT5_PROC1_B) AT6_PROC1_B)) ?v_7) ?v_11) ?v_15) ?v_19) ?v_23) ?v_27))))))))))))))))))
(check-sat)
(exit)
